/*********************************************
    * Lab01 - FCD_FCR
    * Author: Coso
    * Creation Date: Mar, 2019
    *********************************************/
instance_name = "small_instance_24_FCD_FCR";

d = 2;
r = 3;

SCj = [139 136];
Fj = [3635, 2769];
Dk = [75 64 61];

Cjk = [[68 86 49]
 [51 75 33]];
Fjk = [[440 814 749]
 [457 631 724]];
